problems/csplib-prob056/params/sonet-40-30-30-4171.param
language Essence 1.3
letting nnodes be 40
letting nrings be 30
letting capacity be 30
letting demand be 
{{1, 3},
{1, 4},
{1, 8},
{1, 11},
{1, 12},
{1, 13},
{1, 14},
{1, 15},
{1, 17},
{1, 20},
{1, 21},
{1, 26},
{1, 27},
{1, 28},
{1, 31},
{1, 32},
{1, 34},
{1, 35},
{1, 36},
{1, 38},
{1, 39},
{1, 40},
{2, 5},
{2, 6},
{2, 7},
{2, 9},
{2, 11},
{2, 12},
{2, 13},
{2, 14},
{2, 15},
{2, 16},
{2, 17},
{2, 18},
{2, 19},
{2, 22},
{2, 23},
{2, 24},
{2, 25},
{2, 26},
{2, 27},
{2, 28},
{2, 29},
{2, 31},
{2, 33},
{2, 34},
{2, 37},
{2, 38},
{2, 39},
{2, 40},
{3, 4},
{3, 5},
{3, 7},
{3, 14},
{3, 15},
{3, 16},
{3, 19},
{3, 20},
{3, 21},
{3, 22},
{3, 29},
{3, 32},
{3, 35},
{3, 36},
{3, 38},
{4, 5},
{4, 8},
{4, 9},
{4, 12},
{4, 13},
{4, 14},
{4, 15},
{4, 17},
{4, 19},
{4, 20},
{4, 23},
{4, 24},
{4, 25},
{4, 27},
{4, 29},
{4, 30},
{4, 33},
{4, 36},
{4, 38},
{4, 39},
{4, 40},
{5, 7},
{5, 8},
{5, 10},
{5, 14},
{5, 15},
{5, 18},
{5, 19},
{5, 20},
{5, 22},
{5, 23},
{5, 24},
{5, 25},
{5, 26},
{5, 27},
{5, 28},
{5, 29},
{5, 30},
{5, 31},
{5, 32},
{5, 33},
{5, 36},
{5, 37},
{5, 40},
{6, 8},
{6, 9},
{6, 10},
{6, 11},
{6, 13},
{6, 14},
{6, 15},
{6, 16},
{6, 17},
{6, 19},
{6, 21},
{6, 24},
{6, 27},
{6, 28},
{6, 30},
{6, 32},
{6, 35},
{6, 38},
{6, 39},
{6, 40},
{7, 8},
{7, 9},
{7, 10},
{7, 11},
{7, 17},
{7, 18},
{7, 19},
{7, 23},
{7, 26},
{7, 28},
{7, 32},
{7, 33},
{7, 34},
{7, 35},
{7, 36},
{7, 37},
{7, 40},
{8, 10},
{8, 11},
{8, 12},
{8, 17},
{8, 20},
{8, 22},
{8, 24},
{8, 25},
{8, 27},
{8, 29},
{8, 33},
{8, 34},
{8, 35},
{8, 39},
{9, 10},
{9, 14},
{9, 15},
{9, 16},
{9, 17},
{9, 20},
{9, 21},
{9, 22},
{9, 24},
{9, 26},
{9, 29},
{9, 31},
{9, 32},
{9, 34},
{9, 35},
{9, 36},
{9, 38},
{9, 40},
{10, 11},
{10, 13},
{10, 14},
{10, 17},
{10, 19},
{10, 21},
{10, 22},
{10, 24},
{10, 25},
{10, 27},
{10, 28},
{10, 31},
{10, 34},
{10, 36},
{10, 37},
{10, 38},
{10, 40},
{11, 12},
{11, 13},
{11, 20},
{11, 22},
{11, 23},
{11, 25},
{11, 26},
{11, 27},
{11, 29},
{11, 31},
{11, 32},
{11, 35},
{11, 37},
{11, 38},
{11, 39},
{12, 15},
{12, 17},
{12, 18},
{12, 19},
{12, 20},
{12, 21},
{12, 23},
{12, 24},
{12, 29},
{12, 32},
{12, 36},
{12, 38},
{12, 39},
{12, 40},
{13, 14},
{13, 16},
{13, 18},
{13, 19},
{13, 20},
{13, 21},
{13, 23},
{13, 28},
{13, 29},
{13, 30},
{13, 31},
{13, 33},
{13, 34},
{13, 36},
{13, 38},
{14, 15},
{14, 18},
{14, 20},
{14, 23},
{14, 24},
{14, 25},
{14, 26},
{14, 27},
{14, 29},
{14, 32},
{14, 36},
{14, 38},
{14, 40},
{15, 16},
{15, 17},
{15, 18},
{15, 19},
{15, 20},
{15, 24},
{15, 27},
{15, 28},
{15, 29},
{15, 30},
{15, 31},
{15, 33},
{15, 34},
{15, 36},
{15, 37},
{16, 17},
{16, 19},
{16, 20},
{16, 22},
{16, 23},
{16, 27},
{16, 28},
{16, 29},
{16, 30},
{16, 31},
{16, 35},
{16, 37},
{16, 40},
{17, 19},
{17, 21},
{17, 22},
{17, 23},
{17, 24},
{17, 25},
{17, 26},
{17, 27},
{17, 28},
{17, 31},
{17, 34},
{17, 36},
{17, 37},
{17, 38},
{17, 39},
{17, 40},
{18, 21},
{18, 26},
{18, 27},
{18, 28},
{18, 30},
{18, 32},
{18, 35},
{18, 36},
{18, 38},
{18, 39},
{19, 21},
{19, 22},
{19, 23},
{19, 24},
{19, 25},
{19, 26},
{19, 27},
{19, 29},
{19, 30},
{19, 37},
{19, 38},
{19, 40},
{20, 22},
{20, 23},
{20, 28},
{20, 29},
{20, 30},
{20, 31},
{20, 33},
{20, 34},
{20, 35},
{20, 37},
{20, 40},
{21, 24},
{21, 25},
{21, 26},
{21, 27},
{21, 28},
{21, 34},
{21, 36},
{21, 37},
{21, 38},
{21, 39},
{22, 27},
{22, 28},
{22, 29},
{22, 30},
{22, 33},
{22, 34},
{22, 38},
{22, 39},
{23, 24},
{23, 26},
{23, 28},
{23, 33},
{23, 35},
{23, 36},
{23, 37},
{23, 39},
{24, 25},
{24, 26},
{24, 27},
{24, 30},
{24, 34},
{24, 35},
{24, 38},
{24, 39},
{25, 27},
{25, 28},
{25, 30},
{25, 31},
{25, 35},
{25, 36},
{25, 37},
{25, 40},
{26, 29},
{26, 31},
{26, 32},
{26, 33},
{26, 34},
{26, 35},
{26, 39},
{26, 40},
{27, 30},
{27, 31},
{27, 33},
{27, 34},
{27, 37},
{27, 40},
{28, 30},
{28, 31},
{28, 32},
{28, 33},
{28, 34},
{28, 35},
{28, 40},
{29, 32},
{29, 34},
{29, 35},
{29, 36},
{29, 39},
{29, 40},
{30, 35},
{30, 37},
{30, 38},
{31, 32},
{31, 34},
{32, 34},
{32, 36},
{32, 38},
{33, 34},
{33, 35},
{33, 36},
{33, 37},
{33, 38},
{33, 40},
{34, 35},
{34, 37},
{34, 38},
{34, 39},
{34, 40},
{35, 39},
{36, 37},
{36, 38},
{37, 39}}
